100
30
9
4
32
6
3
18
17
1
6
32
4
16
20
2
2
31
12
1
17
6
26
4
6
24
4
3
32
2
9
4
15
8
31
2
16
9
16
3
19
7
4
18
12
3
31
22
32
18
4
30
2
6
31
6
20
8
4
2
32
17
31
16
8
31
32
10
2
31
1
22
18
2
27
13
31
24
7
31
32
2
9
19
4
31
19
2
1
7
5
20
3
4
31
3
18
2
1
5
3
2